c "131932.clq"
p edge 255 3824
e 1 17
e 1 18
e 1 19
e 1 20
e 1 21
e 1 22
e 1 25
e 1 26
e 1 28
e 1 30
e 1 33
e 1 37
e 1 44
e 1 45
e 1 47
e 1 60
e 1 65
e 1 67
e 1 71
e 1 78
e 1 86
e 1 96
e 1 100
e 1 117
e 1 146
e 1 153
e 1 157
e 1 166
e 1 171
e 1 213
e 1 220
e 1 222
e 1 226
e 1 236
e 1 244
e 2 17
e 2 18
e 2 19
e 2 20
e 2 22
e 2 24
e 2 33
e 2 34
e 2 36
e 2 52
e 2 56
e 2 58
e 2 59
e 2 61
e 2 62
e 2 66
e 2 74
e 2 79
e 2 95
e 2 96
e 2 105
e 2 109
e 2 114
e 2 118
e 2 123
e 2 133
e 2 136
e 2 141
e 2 145
e 2 147
e 2 148
e 2 152
e 2 160
e 2 165
e 2 183
e 2 190
e 2 202
e 2 212
e 2 225
e 2 230
e 2 255
e 3 17
e 3 18
e 3 19
e 3 20
e 3 21
e 3 22
e 3 23
e 3 25
e 3 26
e 3 28
e 3 30
e 3 32
e 3 33
e 3 35
e 3 36
e 3 37
e 3 44
e 3 45
e 3 46
e 3 48
e 3 54
e 3 63
e 3 70
e 3 71
e 3 75
e 3 77
e 3 81
e 3 83
e 3 84
e 3 119
e 3 133
e 3 149
e 3 167
e 3 177
e 3 187
e 3 189
e 3 199
e 3 207
e 3 217
e 3 218
e 3 219
e 3 234
e 3 235
e 3 239
e 3 255
e 4 17
e 4 18
e 4 19
e 4 20
e 4 21
e 4 22
e 4 23
e 4 24
e 4 25
e 4 26
e 4 27
e 4 28
e 4 29
e 4 30
e 4 31
e 4 32
e 4 35
e 4 36
e 4 37
e 4 41
e 4 48
e 4 50
e 4 51
e 4 53
e 4 54
e 4 57
e 4 63
e 4 72
e 4 73
e 4 85
e 4 88
e 4 98
e 4 102
e 4 105
e 4 106
e 4 111
e 4 115
e 4 116
e 4 123
e 4 129
e 4 133
e 4 143
e 4 150
e 4 152
e 4 159
e 4 168
e 4 177
e 4 194
e 4 203
e 4 204
e 4 225
e 4 235
e 4 246
e 4 252
e 5 17
e 5 18
e 5 19
e 5 23
e 5 24
e 5 29
e 5 30
e 5 34
e 5 38
e 5 59
e 5 62
e 5 63
e 5 129
e 5 137
e 5 139
e 5 179
e 5 205
e 5 226
e 5 232
e 5 246
e 6 17
e 6 18
e 6 20
e 6 26
e 6 27
e 6 33
e 6 40
e 6 42
e 6 48
e 6 56
e 6 69
e 6 81
e 6 93
e 6 96
e 6 98
e 6 102
e 6 103
e 6 111
e 6 119
e 6 132
e 6 140
e 6 149
e 6 194
e 6 201
e 6 209
e 6 233
e 7 17
e 7 18
e 7 19
e 7 21
e 7 22
e 7 23
e 7 24
e 7 26
e 7 28
e 7 33
e 7 34
e 7 36
e 7 39
e 7 41
e 7 42
e 7 43
e 7 45
e 7 50
e 7 51
e 7 53
e 7 55
e 7 57
e 7 67
e 7 69
e 7 81
e 7 85
e 7 86
e 7 87
e 7 90
e 7 91
e 7 94
e 7 98
e 7 99
e 7 108
e 7 110
e 7 112
e 7 125
e 7 143
e 7 164
e 7 169
e 7 181
e 7 187
e 7 194
e 7 197
e 7 201
e 7 208
e 7 210
e 7 226
e 7 227
e 8 17
e 8 18
e 8 19
e 8 20
e 8 21
e 8 22
e 8 24
e 8 25
e 8 28
e 8 29
e 8 30
e 8 33
e 8 34
e 8 36
e 8 38
e 8 39
e 8 41
e 8 43
e 8 44
e 8 46
e 8 53
e 8 62
e 8 69
e 8 77
e 8 79
e 8 80
e 8 81
e 8 83
e 8 85
e 8 90
e 8 97
e 8 113
e 8 121
e 8 123
e 8 127
e 8 130
e 8 143
e 8 145
e 8 150
e 8 154
e 8 155
e 8 167
e 8 180
e 8 181
e 8 187
e 8 212
e 8 217
e 8 227
e 8 250
e 9 17
e 9 18
e 9 19
e 9 20
e 9 22
e 9 23
e 9 24
e 9 25
e 9 27
e 9 31
e 9 33
e 9 38
e 9 43
e 9 47
e 9 48
e 9 49
e 9 52
e 9 63
e 9 64
e 9 71
e 9 73
e 9 80
e 9 94
e 9 98
e 9 99
e 9 108
e 9 109
e 9 123
e 9 127
e 9 129
e 9 131
e 9 138
e 9 142
e 9 149
e 9 196
e 9 212
e 9 214
e 9 215
e 9 221
e 9 222
e 9 238
e 9 241
e 9 251
e 10 17
e 10 20
e 10 21
e 10 23
e 10 24
e 10 25
e 10 26
e 10 27
e 10 29
e 10 31
e 10 32
e 10 35
e 10 37
e 10 44
e 10 48
e 10 49
e 10 51
e 10 52
e 10 55
e 10 73
e 10 78
e 10 91
e 10 100
e 10 111
e 10 117
e 10 121
e 10 131
e 10 133
e 10 135
e 10 164
e 10 172
e 10 177
e 10 197
e 10 202
e 10 205
e 10 208
e 10 223
e 10 230
e 10 235
e 10 250
e 10 252
e 11 17
e 11 18
e 11 19
e 11 20
e 11 21
e 11 22
e 11 25
e 11 27
e 11 29
e 11 31
e 11 38
e 11 41
e 11 50
e 11 61
e 11 62
e 11 66
e 11 67
e 11 68
e 11 70
e 11 73
e 11 75
e 11 79
e 11 80
e 11 81
e 11 83
e 11 85
e 11 86
e 11 100
e 11 106
e 11 119
e 11 123
e 11 137
e 11 139
e 11 140
e 11 142
e 11 144
e 11 161
e 11 163
e 11 171
e 11 172
e 11 179
e 11 232
e 11 237
e 11 248
e 12 17
e 12 18
e 12 19
e 12 20
e 12 21
e 12 22
e 12 23
e 12 25
e 12 27
e 12 30
e 12 37
e 12 38
e 12 42
e 12 49
e 12 53
e 12 56
e 12 64
e 12 68
e 12 69
e 12 71
e 12 79
e 12 87
e 12 90
e 12 93
e 12 115
e 12 132
e 12 135
e 12 165
e 12 184
e 12 190
e 12 197
e 12 204
e 12 219
e 12 223
e 12 250
e 12 255
e 13 17
e 13 18
e 13 19
e 13 20
e 13 21
e 13 22
e 13 23
e 13 24
e 13 25
e 13 26
e 13 27
e 13 28
e 13 31
e 13 36
e 13 40
e 13 41
e 13 42
e 13 45
e 13 50
e 13 62
e 13 64
e 13 68
e 13 83
e 13 89
e 13 107
e 13 112
e 13 119
e 13 122
e 13 127
e 13 130
e 13 131
e 13 139
e 13 166
e 13 169
e 13 181
e 13 192
e 13 217
e 13 236
e 13 252
e 13 255
e 14 17
e 14 18
e 14 19
e 14 20
e 14 21
e 14 22
e 14 23
e 14 24
e 14 26
e 14 27
e 14 29
e 14 30
e 14 32
e 14 35
e 14 42
e 14 43
e 14 51
e 14 52
e 14 57
e 14 58
e 14 60
e 14 66
e 14 67
e 14 79
e 14 82
e 14 89
e 14 90
e 14 91
e 14 94
e 14 98
e 14 105
e 14 112
e 14 115
e 14 116
e 14 120
e 14 122
e 14 127
e 14 128
e 14 132
e 14 135
e 14 143
e 14 148
e 14 153
e 14 155
e 14 156
e 14 157
e 14 158
e 14 159
e 14 164
e 14 170
e 14 172
e 14 176
e 14 177
e 14 188
e 14 190
e 14 195
e 14 199
e 14 203
e 14 217
e 14 221
e 14 224
e 14 227
e 14 229
e 14 231
e 14 241
e 14 254
e 15 17
e 15 18
e 15 19
e 15 20
e 15 21
e 15 23
e 15 24
e 15 27
e 15 28
e 15 29
e 15 30
e 15 35
e 15 38
e 15 40
e 15 41
e 15 49
e 15 51
e 15 52
e 15 54
e 15 57
e 15 58
e 15 72
e 15 84
e 15 92
e 15 96
e 15 104
e 15 108
e 15 113
e 15 116
e 15 129
e 15 133
e 15 143
e 15 146
e 15 158
e 15 167
e 15 171
e 15 172
e 15 183
e 15 205
e 15 226
e 15 228
e 15 255
e 16 17
e 16 18
e 16 19
e 16 21
e 16 22
e 16 32
e 16 33
e 16 36
e 16 37
e 16 38
e 16 43
e 16 44
e 16 49
e 16 50
e 16 63
e 16 65
e 16 71
e 16 75
e 16 80
e 16 87
e 16 107
e 16 108
e 16 119
e 16 128
e 16 137
e 16 141
e 16 148
e 16 153
e 16 164
e 16 175
e 16 191
e 16 198
e 16 201
e 16 211
e 16 216
e 16 238
e 16 249
e 16 251
e 17 18
e 17 19
e 17 20
e 17 21
e 17 22
e 17 23
e 17 24
e 17 25
e 17 26
e 17 27
e 17 30
e 17 31
e 17 32
e 17 35
e 17 37
e 17 38
e 17 40
e 17 41
e 17 42
e 17 43
e 17 44
e 17 45
e 17 46
e 17 47
e 17 49
e 17 51
e 17 52
e 17 55
e 17 56
e 17 62
e 17 65
e 17 66
e 17 68
e 17 75
e 17 76
e 17 79
e 17 82
e 17 89
e 17 91
e 17 93
e 17 94
e 17 102
e 17 106
e 17 107
e 17 112
e 17 117
e 17 118
e 17 119
e 17 123
e 17 124
e 17 127
e 17 128
e 17 129
e 17 134
e 17 135
e 17 139
e 17 142
e 17 144
e 17 145
e 17 146
e 17 147
e 17 153
e 17 160
e 17 161
e 17 163
e 17 173
e 17 179
e 17 187
e 17 194
e 17 195
e 17 200
e 17 201
e 17 207
e 17 208
e 17 210
e 17 211
e 17 214
e 17 217
e 17 223
e 17 225
e 17 230
e 17 233
e 17 237
e 17 238
e 17 242
e 17 243
e 17 248
e 17 253
e 18 19
e 18 20
e 18 21
e 18 23
e 18 24
e 18 26
e 18 27
e 18 28
e 18 29
e 18 31
e 18 32
e 18 33
e 18 34
e 18 35
e 18 36
e 18 37
e 18 38
e 18 39
e 18 40
e 18 41
e 18 43
e 18 44
e 18 46
e 18 47
e 18 48
e 18 49
e 18 50
e 18 51
e 18 52
e 18 54
e 18 55
e 18 57
e 18 62
e 18 65
e 18 66
e 18 68
e 18 69
e 18 70
e 18 74
e 18 77
e 18 78
e 18 81
e 18 82
e 18 97
e 18 106
e 18 108
e 18 110
e 18 111
e 18 116
e 18 118
e 18 124
e 18 129
e 18 136
e 18 137
e 18 142
e 18 143
e 18 145
e 18 146
e 18 148
e 18 151
e 18 152
e 18 153
e 18 154
e 18 157
e 18 162
e 18 163
e 18 164
e 18 165
e 18 166
e 18 177
e 18 180
e 18 187
e 18 188
e 18 189
e 18 190
e 18 191
e 18 201
e 18 217
e 18 219
e 18 227
e 18 228
e 18 230
e 18 231
e 18 235
e 18 236
e 18 243
e 18 252
e 18 254
e 19 20
e 19 21
e 19 22
e 19 23
e 19 24
e 19 25
e 19 26
e 19 28
e 19 29
e 19 31
e 19 32
e 19 34
e 19 35
e 19 36
e 19 37
e 19 38
e 19 39
e 19 41
e 19 43
e 19 44
e 19 45
e 19 46
e 19 47
e 19 49
e 19 53
e 19 54
e 19 57
e 19 58
e 19 59
e 19 60
e 19 63
e 19 64
e 19 65
e 19 67
e 19 68
e 19 69
e 19 70
e 19 71
e 19 73
e 19 75
e 19 76
e 19 78
e 19 81
e 19 82
e 19 83
e 19 84
e 19 90
e 19 91
e 19 92
e 19 93
e 19 97
e 19 100
e 19 109
e 19 118
e 19 125
e 19 126
e 19 127
e 19 134
e 19 138
e 19 142
e 19 150
e 19 151
e 19 157
e 19 159
e 19 163
e 19 164
e 19 168
e 19 171
e 19 175
e 19 180
e 19 181
e 19 183
e 19 184
e 19 191
e 19 193
e 19 194
e 19 200
e 19 201
e 19 203
e 19 204
e 19 211
e 19 214
e 19 215
e 19 218
e 19 220
e 19 221
e 19 222
e 19 224
e 19 227
e 19 235
e 19 238
e 19 240
e 19 242
e 19 244
e 19 248
e 19 251
e 19 255
e 20 21
e 20 22
e 20 23
e 20 24
e 20 25
e 20 26
e 20 27
e 20 28
e 20 29
e 20 30
e 20 31
e 20 32
e 20 34
e 20 35
e 20 36
e 20 37
e 20 38
e 20 39
e 20 40
e 20 42
e 20 43
e 20 45
e 20 46
e 20 47
e 20 50
e 20 53
e 20 55
e 20 58
e 20 60
e 20 63
e 20 66
e 20 71
e 20 75
e 20 78
e 20 80
e 20 87
e 20 88
e 20 89
e 20 94
e 20 100
e 20 102
e 20 106
e 20 110
e 20 113
e 20 115
e 20 125
e 20 132
e 20 133
e 20 134
e 20 142
e 20 147
e 20 152
e 20 161
e 20 165
e 20 188
e 20 192
e 20 199
e 20 204
e 20 212
e 20 214
e 20 215
e 20 222
e 20 228
e 20 233
e 20 245
e 20 255
e 21 22
e 21 23
e 21 24
e 21 25
e 21 26
e 21 27
e 21 28
e 21 29
e 21 30
e 21 31
e 21 32
e 21 33
e 21 34
e 21 39
e 21 40
e 21 42
e 21 44
e 21 45
e 21 46
e 21 47
e 21 48
e 21 51
e 21 52
e 21 53
e 21 54
e 21 56
e 21 57
e 21 59
e 21 60
e 21 61
e 21 70
e 21 72
e 21 74
e 21 83
e 21 88
e 21 89
e 21 96
e 21 102
e 21 104
e 21 109
e 21 114
e 21 118
e 21 120
e 21 121
e 21 123
e 21 124
e 21 128
e 21 132
e 21 135
e 21 137
e 21 139
e 21 156
e 21 165
e 21 176
e 21 179
e 21 183
e 21 184
e 21 189
e 21 209
e 21 221
e 21 237
e 21 241
e 21 248
e 21 251
e 22 23
e 22 25
e 22 26
e 22 28
e 22 32
e 22 34
e 22 35
e 22 36
e 22 39
e 22 40
e 22 41
e 22 42
e 22 44
e 22 47
e 22 50
e 22 55
e 22 64
e 22 65
e 22 68
e 22 69
e 22 70
e 22 71
e 22 72
e 22 75
e 22 77
e 22 81
e 22 84
e 22 87
e 22 88
e 22 96
e 22 97
e 22 99
e 22 100
e 22 101
e 22 103
e 22 105
e 22 107
e 22 108
e 22 115
e 22 116
e 22 120
e 22 122
e 22 127
e 22 134
e 22 138
e 22 140
e 22 141
e 22 142
e 22 152
e 22 158
e 22 168
e 22 172
e 22 181
e 22 182
e 22 183
e 22 184
e 22 187
e 22 190
e 22 191
e 22 201
e 22 209
e 22 224
e 22 229
e 22 232
e 22 247
e 22 251
e 23 24
e 23 25
e 23 26
e 23 27
e 23 28
e 23 29
e 23 30
e 23 31
e 23 32
e 23 34
e 23 35
e 23 36
e 23 39
e 23 40
e 23 43
e 23 44
e 23 46
e 23 47
e 23 50
e 23 52
e 23 55
e 23 56
e 23 57
e 23 60
e 23 62
e 23 65
e 23 80
e 23 85
e 23 86
e 23 88
e 23 91
e 23 97
e 23 103
e 23 105
e 23 108
e 23 111
e 23 117
e 23 121
e 23 123
e 23 131
e 23 136
e 23 140
e 23 142
e 23 144
e 23 145
e 23 150
e 23 151
e 23 171
e 23 178
e 23 179
e 23 183
e 23 195
e 23 196
e 23 208
e 23 218
e 23 219
e 23 222
e 23 224
e 23 248
e 23 254
e 24 25
e 24 27
e 24 28
e 24 29
e 24 30
e 24 31
e 24 33
e 24 34
e 24 35
e 24 36
e 24 37
e 24 38
e 24 42
e 24 46
e 24 49
e 24 57
e 24 59
e 24 60
e 24 69
e 24 72
e 24 74
e 24 78
e 24 91
e 24 94
e 24 96
e 24 103
e 24 104
e 24 106
e 24 111
e 24 126
e 24 132
e 24 144
e 24 152
e 24 156
e 24 157
e 24 158
e 24 166
e 24 167
e 24 172
e 24 192
e 24 197
e 24 201
e 24 202
e 24 206
e 24 213
e 24 221
e 24 224
e 24 227
e 24 229
e 24 231
e 24 234
e 24 237
e 24 239
e 24 240
e 24 243
e 24 245
e 24 252
e 25 26
e 25 28
e 25 29
e 25 31
e 25 32
e 25 33
e 25 39
e 25 41
e 25 42
e 25 44
e 25 45
e 25 48
e 25 49
e 25 51
e 25 54
e 25 56
e 25 57
e 25 59
e 25 60
e 25 61
e 25 62
e 25 65
e 25 70
e 25 73
e 25 74
e 25 75
e 25 84
e 25 86
e 25 90
e 25 95
e 25 111
e 25 114
e 25 115
e 25 122
e 25 123
e 25 128
e 25 134
e 25 136
e 25 137
e 25 138
e 25 140
e 25 143
e 25 144
e 25 160
e 25 163
e 25 171
e 25 176
e 25 177
e 25 178
e 25 180
e 25 185
e 25 187
e 25 189
e 25 190
e 25 202
e 25 203
e 25 212
e 25 214
e 25 215
e 25 216
e 25 219
e 25 224
e 25 236
e 25 242
e 25 249
e 25 250
e 25 251
e 26 27
e 26 30
e 26 31
e 26 35
e 26 36
e 26 43
e 26 45
e 26 47
e 26 48
e 26 51
e 26 58
e 26 62
e 26 66
e 26 79
e 26 82
e 26 85
e 26 86
e 26 87
e 26 93
e 26 94
e 26 96
e 26 98
e 26 101
e 26 103
e 26 106
e 26 107
e 26 110
e 26 112
e 26 120
e 26 127
e 26 136
e 26 137
e 26 138
e 26 154
e 26 169
e 26 172
e 26 175
e 26 176
e 26 186
e 26 212
e 26 222
e 26 223
e 26 234
e 26 241
e 26 242
e 27 28
e 27 29
e 27 30
e 27 32
e 27 33
e 27 35
e 27 38
e 27 40
e 27 41
e 27 45
e 27 46
e 27 49
e 27 51
e 27 53
e 27 55
e 27 56
e 27 58
e 27 65
e 27 69
e 27 71
e 27 73
e 27 75
e 27 81
e 27 82
e 27 85
e 27 90
e 27 92
e 27 93
e 27 103
e 27 107
e 27 108
e 27 116
e 27 123
e 27 126
e 27 136
e 27 147
e 27 164
e 27 167
e 27 169
e 27 172
e 27 173
e 27 175
e 27 179
e 27 181
e 27 191
e 27 204
e 27 208
e 27 210
e 27 241
e 27 248
e 27 253
e 28 29
e 28 30
e 28 31
e 28 32
e 28 33
e 28 34
e 28 35
e 28 37
e 28 38
e 28 40
e 28 45
e 28 49
e 28 50
e 28 51
e 28 52
e 28 54
e 28 58
e 28 59
e 28 61
e 28 66
e 28 67
e 28 68
e 28 70
e 28 71
e 28 73
e 28 76
e 28 77
e 28 85
e 28 89
e 28 90
e 28 91
e 28 95
e 28 98
e 28 99
e 28 100
e 28 101
e 28 108
e 28 109
e 28 111
e 28 112
e 28 114
e 28 115
e 28 116
e 28 121
e 28 124
e 28 125
e 28 126
e 28 130
e 28 131
e 28 132
e 28 137
e 28 139
e 28 141
e 28 148
e 28 151
e 28 153
e 28 154
e 28 155
e 28 162
e 28 173
e 28 178
e 28 179
e 28 181
e 28 188
e 28 197
e 28 198
e 28 199
e 28 200
e 28 202
e 28 210
e 28 211
e 28 213
e 28 214
e 28 220
e 28 226
e 28 227
e 28 228
e 28 230
e 28 246
e 28 254
e 29 31
e 29 32
e 29 34
e 29 39
e 29 41
e 29 42
e 29 47
e 29 53
e 29 60
e 29 62
e 29 64
e 29 75
e 29 76
e 29 77
e 29 78
e 29 80
e 29 83
e 29 87
e 29 88
e 29 89
e 29 95
e 29 101
e 29 113
e 29 115
e 29 119
e 29 120
e 29 121
e 29 124
e 29 128
e 29 129
e 29 131
e 29 142
e 29 148
e 29 149
e 29 158
e 29 160
e 29 179
e 29 182
e 29 185
e 29 189
e 29 207
e 29 223
e 29 229
e 29 246
e 30 33
e 30 34
e 30 35
e 30 36
e 30 42
e 30 48
e 30 55
e 30 58
e 30 68
e 30 73
e 30 90
e 30 94
e 30 95
e 30 102
e 30 103
e 30 125
e 30 130
e 30 136
e 30 139
e 30 150
e 30 169
e 30 171
e 30 179
e 30 194
e 30 199
e 30 205
e 30 208
e 30 209
e 30 211
e 30 221
e 30 232
e 30 242
e 30 243
e 30 245
e 31 33
e 31 39
e 31 40
e 31 41
e 31 42
e 31 43
e 31 46
e 31 47
e 31 54
e 31 57
e 31 61
e 31 63
e 31 64
e 31 65
e 31 66
e 31 67
e 31 71
e 31 73
e 31 79
e 31 87
e 31 88
e 31 94
e 31 96
e 31 106
e 31 108
e 31 111
e 31 117
e 31 121
e 31 135
e 31 140
e 31 143
e 31 145
e 31 149
e 31 150
e 31 161
e 31 162
e 31 173
e 31 179
e 31 193
e 31 201
e 31 208
e 31 216
e 31 220
e 31 230
e 31 245
e 31 255
e 32 34
e 32 39
e 32 40
e 32 41
e 32 42
e 32 47
e 32 48
e 32 52
e 32 56
e 32 58
e 32 60
e 32 61
e 32 67
e 32 71
e 32 75
e 32 76
e 32 77
e 32 78
e 32 84
e 32 92
e 32 95
e 32 103
e 32 107
e 32 108
e 32 113
e 32 119
e 32 123
e 32 125
e 32 131
e 32 153
e 32 167
e 32 175
e 32 184
e 32 213
e 32 215
e 32 229
e 32 242
e 32 243
e 32 255
e 33 34
e 33 36
e 33 37
e 33 38
e 33 39
e 33 43
e 33 44
e 33 45
e 33 49
e 33 56
e 33 64
e 33 66
e 33 68
e 33 69
e 33 70
e 33 71
e 33 72
e 33 73
e 33 81
e 33 92
e 33 101
e 33 107
e 33 109
e 33 112
e 33 115
e 33 116
e 33 117
e 33 118
e 33 121
e 33 122
e 33 123
e 33 136
e 33 138
e 33 141
e 33 144
e 33 152
e 33 153
e 33 159
e 33 166
e 33 180
e 33 181
e 33 182
e 33 184
e 33 188
e 33 191
e 33 206
e 33 219
e 33 227
e 33 228
e 33 229
e 33 232
e 33 237
e 34 37
e 34 38
e 34 39
e 34 43
e 34 50
e 34 53
e 34 55
e 34 57
e 34 58
e 34 59
e 34 61
e 34 62
e 34 63
e 34 64
e 34 67
e 34 70
e 34 74
e 34 79
e 34 84
e 34 97
e 34 99
e 34 105
e 34 111
e 34 114
e 34 120
e 34 122
e 34 126
e 34 130
e 34 134
e 34 143
e 34 147
e 34 153
e 34 156
e 34 159
e 34 161
e 34 162
e 34 163
e 34 167
e 34 173
e 34 175
e 34 177
e 34 185
e 34 191
e 34 205
e 34 217
e 34 231
e 34 239
e 34 251
e 34 254
e 35 37
e 35 40
e 35 43
e 35 46
e 35 47
e 35 52
e 35 53
e 35 54
e 35 55
e 35 66
e 35 68
e 35 74
e 35 75
e 35 78
e 35 82
e 35 83
e 35 84
e 35 89
e 35 95
e 35 100
e 35 112
e 35 124
e 35 125
e 35 131
e 35 133
e 35 140
e 35 145
e 35 161
e 35 164
e 35 168
e 35 173
e 35 175
e 35 176
e 35 178
e 35 185
e 35 188
e 35 189
e 35 204
e 35 218
e 35 220
e 35 228
e 35 234
e 36 37
e 36 42
e 36 44
e 36 47
e 36 49
e 36 51
e 36 54
e 36 57
e 36 58
e 36 59
e 36 66
e 36 67
e 36 73
e 36 74
e 36 81
e 36 82
e 36 83
e 36 85
e 36 87
e 36 99
e 36 101
e 36 102
e 36 110
e 36 112
e 36 115
e 36 120
e 36 123
e 36 125
e 36 138
e 36 142
e 36 144
e 36 150
e 36 156
e 36 158
e 36 159
e 36 164
e 36 179
e 36 180
e 36 196
e 36 209
e 36 249
e 37 39
e 37 40
e 37 45
e 37 46
e 37 48
e 37 57
e 37 69
e 37 77
e 37 78
e 37 79
e 37 80
e 37 92
e 37 95
e 37 102
e 37 104
e 37 110
e 37 113
e 37 144
e 37 145
e 37 158
e 37 161
e 37 180
e 37 185
e 37 199
e 37 207
e 37 208
e 37 210
e 37 218
e 37 233
e 37 240
e 37 242
e 37 250
e 38 39
e 38 40
e 38 46
e 38 48
e 38 50
e 38 53
e 38 63
e 38 64
e 38 70
e 38 72
e 38 76
e 38 83
e 38 85
e 38 86
e 38 88
e 38 91
e 38 93
e 38 99
e 38 102
e 38 106
e 38 109
e 38 114
e 38 117
e 38 118
e 38 128
e 38 131
e 38 138
e 38 143
e 38 146
e 38 157
e 38 160
e 38 176
e 38 187
e 38 203
e 38 205
e 38 207
e 38 208
e 38 212
e 38 226
e 38 245
e 38 248
e 38 250
e 39 41
e 39 43
e 39 50
e 39 53
e 39 59
e 39 81
e 39 84
e 39 94
e 39 96
e 39 105
e 39 109
e 39 110
e 39 118
e 39 139
e 39 155
e 39 163
e 39 173
e 39 174
e 39 178
e 39 180
e 39 202
e 39 218
e 39 248
e 40 52
e 40 53
e 40 54
e 40 65
e 40 77
e 40 79
e 40 83
e 40 91
e 40 92
e 40 102
e 40 104
e 40 113
e 40 120
e 40 142
e 40 149
e 40 151
e 40 152
e 40 170
e 40 180
e 40 186
e 40 195
e 40 198
e 40 205
e 40 215
e 40 224
e 40 225
e 40 237
e 40 244
e 40 247
e 40 250
e 41 44
e 41 45
e 41 46
e 41 47
e 41 49
e 41 51
e 41 54
e 41 55
e 41 57
e 41 60
e 41 61
e 41 63
e 41 66
e 41 70
e 41 74
e 41 76
e 41 78
e 41 82
e 41 84
e 41 104
e 41 105
e 41 109
e 41 118
e 41 119
e 41 120
e 41 127
e 41 129
e 41 130
e 41 134
e 41 140
e 41 141
e 41 143
e 41 145
e 41 146
e 41 152
e 41 153
e 41 162
e 41 165
e 41 171
e 41 177
e 41 179
e 41 181
e 41 195
e 41 209
e 41 218
e 41 225
e 41 237
e 41 242
e 41 243
e 41 250
e 42 49
e 42 50
e 42 52
e 42 54
e 42 61
e 42 69
e 42 72
e 42 78
e 42 85
e 42 103
e 42 111
e 42 113
e 42 131
e 42 137
e 42 142
e 42 150
e 42 154
e 42 160
e 42 162
e 42 173
e 42 175
e 42 181
e 42 197
e 42 200
e 42 204
e 42 208
e 42 210
e 42 212
e 42 223
e 42 232
e 42 245
e 42 248
e 43 44
e 43 48
e 43 56
e 43 57
e 43 59
e 43 70
e 43 74
e 43 76
e 43 78
e 43 84
e 43 97
e 43 99
e 43 108
e 43 115
e 43 117
e 43 135
e 43 140
e 43 149
e 43 154
e 43 168
e 43 178
e 43 182
e 43 188
e 43 193
e 43 195
e 43 197
e 43 214
e 43 215
e 43 243
e 43 249
e 43 253
e 44 45
e 44 53
e 44 63
e 44 76
e 44 90
e 44 100
e 44 106
e 44 107
e 44 109
e 44 120
e 44 142
e 44 148
e 44 150
e 44 157
e 44 159
e 44 166
e 44 183
e 44 191
e 44 226
e 44 234
e 44 235
e 45 46
e 45 48
e 45 55
e 45 59
e 45 61
e 45 64
e 45 65
e 45 66
e 45 67
e 45 71
e 45 92
e 45 94
e 45 104
e 45 106
e 45 111
e 45 118
e 45 119
e 45 122
e 45 123
e 45 124
e 45 139
e 45 144
e 45 146
e 45 150
e 45 151
e 45 159
e 45 161
e 45 178
e 45 181
e 45 182
e 45 183
e 45 186
e 45 196
e 45 216
e 45 249
e 46 50
e 46 55
e 46 58
e 46 60
e 46 74
e 46 76
e 46 83
e 46 87
e 46 92
e 46 97
e 46 100
e 46 104
e 46 105
e 46 113
e 46 117
e 46 119
e 46 122
e 46 126
e 46 137
e 46 139
e 46 143
e 46 169
e 46 171
e 46 174
e 46 178
e 46 188
e 46 190
e 46 192
e 46 197
e 46 200
e 46 204
e 46 207
e 46 212
e 46 240
e 46 250
e 47 48
e 47 50
e 47 58
e 47 62
e 47 65
e 47 68
e 47 69
e 47 74
e 47 75
e 47 76
e 47 82
e 47 86
e 47 91
e 47 96
e 47 97
e 47 98
e 47 103
e 47 111
e 47 113
e 47 115
e 47 117
e 47 118
e 47 121
e 47 125
e 47 129
e 47 130
e 47 137
e 47 139
e 47 154
e 47 165
e 47 169
e 47 170
e 47 173
e 47 174
e 47 185
e 47 208
e 47 219
e 47 221
e 47 223
e 47 238
e 47 239
e 47 245
e 47 247
e 47 248
e 48 54
e 48 56
e 48 59
e 48 63
e 48 78
e 48 80
e 48 101
e 48 102
e 48 108
e 48 112
e 48 113
e 48 127
e 48 153
e 48 172
e 48 184
e 49 51
e 49 53
e 49 55
e 49 56
e 49 59
e 49 62
e 49 63
e 49 64
e 49 67
e 49 72
e 49 83
e 49 86
e 49 95
e 49 101
e 49 102
e 49 110
e 49 112
e 49 120
e 49 122
e 49 133
e 49 136
e 49 137
e 49 154
e 49 160
e 49 162
e 49 183
e 49 195
e 49 199
e 49 203
e 49 205
e 49 208
e 49 215
e 49 225
e 49 229
e 49 246
e 49 247
e 49 249
e 49 254
e 50 51
e 50 52
e 50 60
e 50 67
e 50 72
e 50 129
e 50 137
e 50 140
e 50 142
e 50 146
e 50 176
e 50 182
e 50 184
e 50 186
e 50 191
e 50 218
e 50 219
e 50 255
e 51 52
e 51 55
e 51 56
e 51 58
e 51 59
e 51 68
e 51 73
e 51 88
e 51 93
e 51 99
e 51 102
e 51 103
e 51 125
e 51 132
e 51 133
e 51 168
e 51 170
e 51 175
e 51 183
e 51 186
e 51 196
e 51 212
e 51 232
e 51 237
e 51 239
e 51 240
e 52 56
e 52 60
e 52 64
e 52 69
e 52 70
e 52 74
e 52 75
e 52 81
e 52 86
e 52 88
e 52 89
e 52 92
e 52 94
e 52 101
e 52 107
e 52 116
e 52 133
e 52 134
e 52 142
e 52 144
e 52 155
e 52 156
e 52 161
e 52 176
e 52 186
e 52 187
e 52 198
e 52 205
e 52 209
e 52 210
e 52 227
e 52 243
e 52 249
e 52 252
e 52 254
e 53 54
e 53 62
e 53 72
e 53 79
e 53 82
e 53 90
e 53 116
e 53 122
e 53 134
e 53 139
e 53 141
e 53 143
e 53 151
e 53 157
e 53 166
e 53 168
e 53 170
e 53 171
e 53 172
e 53 204
e 53 206
e 53 218
e 53 226
e 53 237
e 53 253
e 54 56
e 54 58
e 54 61
e 54 66
e 54 68
e 54 70
e 54 74
e 54 88
e 54 89
e 54 91
e 54 92
e 54 93
e 54 95
e 54 102
e 54 104
e 54 107
e 54 110
e 54 112
e 54 114
e 54 119
e 54 129
e 54 130
e 54 151
e 54 156
e 54 158
e 54 162
e 54 165
e 54 167
e 54 169
e 54 176
e 54 183
e 54 198
e 54 204
e 54 205
e 54 221
e 54 236
e 54 246
e 54 250
e 54 252
e 54 254
e 55 59
e 55 60
e 55 61
e 55 72
e 55 77
e 55 80
e 55 83
e 55 101
e 55 107
e 55 125
e 55 126
e 55 131
e 55 138
e 55 146
e 55 148
e 55 158
e 55 160
e 55 164
e 55 165
e 55 166
e 55 168
e 55 210
e 55 230
e 55 245
e 56 61
e 56 63
e 56 70
e 56 75
e 56 77
e 56 79
e 56 82
e 56 85
e 56 93
e 56 95
e 56 101
e 56 105
e 56 107
e 56 121
e 56 126
e 56 132
e 56 133
e 56 150
e 56 154
e 56 175
e 56 179
e 56 186
e 56 187
e 56 204
e 56 229
e 56 242
e 56 247
e 57 61
e 57 63
e 57 67
e 57 68
e 57 77
e 57 80
e 57 83
e 57 86
e 57 96
e 57 98
e 57 116
e 57 125
e 57 131
e 57 157
e 57 165
e 57 172
e 57 174
e 57 190
e 57 196
e 57 227
e 57 237
e 57 254
e 58 60
e 58 61
e 58 64
e 58 65
e 58 75
e 58 76
e 58 87
e 58 98
e 58 99
e 58 100
e 58 103
e 58 107
e 58 112
e 58 127
e 58 130
e 58 145
e 58 151
e 58 154
e 58 155
e 58 160
e 58 169
e 58 170
e 58 171
e 58 175
e 58 178
e 58 200
e 58 218
e 58 225
e 58 226
e 58 229
e 58 238
e 58 239
e 58 240
e 58 251
e 59 62
e 59 73
e 59 79
e 59 88
e 59 113
e 59 130
e 59 135
e 59 141
e 59 162
e 59 173
e 59 193
e 59 195
e 59 201
e 59 219
e 59 220
e 59 227
e 59 228
e 59 234
e 59 236
e 59 240
e 59 246
e 59 251
e 59 253
e 60 69
e 60 83
e 60 91
e 60 92
e 60 97
e 60 100
e 60 111
e 60 114
e 60 134
e 60 151
e 60 158
e 60 182
e 60 208
e 60 230
e 60 243
e 61 67
e 61 76
e 61 77
e 61 85
e 61 87
e 61 93
e 61 120
e 61 149
e 61 155
e 61 163
e 61 183
e 61 195
e 61 227
e 61 234
e 61 247
e 62 64
e 62 68
e 62 71
e 62 88
e 62 94
e 62 95
e 62 97
e 62 98
e 62 101
e 62 109
e 62 130
e 62 145
e 62 155
e 62 210
e 62 222
e 62 227
e 63 64
e 63 65
e 63 80
e 63 93
e 63 96
e 63 101
e 63 103
e 63 105
e 63 110
e 63 114
e 63 116
e 63 117
e 63 119
e 63 120
e 63 132
e 63 135
e 63 136
e 63 180
e 63 192
e 63 194
e 63 198
e 63 202
e 63 205
e 63 211
e 63 229
e 63 233
e 64 65
e 64 67
e 64 69
e 64 72
e 64 73
e 64 74
e 64 79
e 64 80
e 64 81
e 64 85
e 64 86
e 64 88
e 64 92
e 64 96
e 64 99
e 64 101
e 64 108
e 64 122
e 64 127
e 64 133
e 64 139
e 64 140
e 64 141
e 64 146
e 64 165
e 64 176
e 64 177
e 64 191
e 64 200
e 64 201
e 64 207
e 64 209
e 64 211
e 64 216
e 64 219
e 64 252
e 65 66
e 65 73
e 65 77
e 65 78
e 65 85
e 65 87
e 65 89
e 65 95
e 65 121
e 65 122
e 65 125
e 65 126
e 65 169
e 65 177
e 65 178
e 65 187
e 65 191
e 65 195
e 65 220
e 65 244
e 66 81
e 66 84
e 66 104
e 66 118
e 66 124
e 66 130
e 66 138
e 66 140
e 66 141
e 66 180
e 67 72
e 67 74
e 67 78
e 67 86
e 67 94
e 67 95
e 67 102
e 67 138
e 67 152
e 67 157
e 67 159
e 67 167
e 67 175
e 67 198
e 67 200
e 67 221
e 67 244
e 68 80
e 68 106
e 68 112
e 68 141
e 68 147
e 68 156
e 68 173
e 68 191
e 68 249
e 69 71
e 69 76
e 69 77
e 69 82
e 69 84
e 69 85
e 69 87
e 69 94
e 69 100
e 69 104
e 69 109
e 69 114
e 69 119
e 69 121
e 69 126
e 69 128
e 69 135
e 69 138
e 69 146
e 69 151
e 69 168
e 69 175
e 69 178
e 69 186
e 69 202
e 69 206
e 69 216
e 69 220
e 69 222
e 69 226
e 69 233
e 70 72
e 70 100
e 70 116
e 70 125
e 70 162
e 70 189
e 70 197
e 70 217
e 70 229
e 71 72
e 71 76
e 71 82
e 71 89
e 71 110
e 71 116
e 71 126
e 71 129
e 71 150
e 71 151
e 71 155
e 71 157
e 71 158
e 71 165
e 71 168
e 71 171
e 71 173
e 71 175
e 71 182
e 71 194
e 71 199
e 71 231
e 71 236
e 71 237
e 71 243
e 71 246
e 71 247
e 71 248
e 71 253
e 72 80
e 72 89
e 72 90
e 72 99
e 72 118
e 72 128
e 72 129
e 72 150
e 72 152
e 72 158
e 72 177
e 72 187
e 72 206
e 72 236
e 72 246
e 73 79
e 73 82
e 73 114
e 73 169
e 73 177
e 73 185
e 73 192
e 73 207
e 73 238
e 73 240
e 74 90
e 74 92
e 74 110
e 74 113
e 74 124
e 74 129
e 74 146
e 74 163
e 74 174
e 74 188
e 74 224
e 74 251
e 75 76
e 75 77
e 75 82
e 75 87
e 75 89
e 75 90
e 75 97
e 75 103
e 75 114
e 75 120
e 75 124
e 75 145
e 75 156
e 75 157
e 75 169
e 75 184
e 75 200
e 75 203
e 75 205
e 75 209
e 75 219
e 75 220
e 75 223
e 75 228
e 75 231
e 75 236
e 76 120
e 76 124
e 76 154
e 76 156
e 76 161
e 76 174
e 76 186
e 76 189
e 76 206
e 76 209
e 76 211
e 76 231
e 76 245
e 77 81
e 77 84
e 77 86
e 77 91
e 77 98
e 77 110
e 77 121
e 77 144
e 77 148
e 77 154
e 77 164
e 77 185
e 77 196
e 77 202
e 77 214
e 77 233
e 78 80
e 78 89
e 78 94
e 78 148
e 78 166
e 78 206
e 78 215
e 78 225
e 78 244
e 79 88
e 79 90
e 79 92
e 79 101
e 79 137
e 79 141
e 79 154
e 79 158
e 79 165
e 79 178
e 79 190
e 79 191
e 79 193
e 79 199
e 79 217
e 79 220
e 79 228
e 79 253
e 80 84
e 80 98
e 80 112
e 80 116
e 80 132
e 80 150
e 80 152
e 80 182
e 80 206
e 80 210
e 80 233
e 80 255
e 81 84
e 81 92
e 81 104
e 81 106
e 81 108
e 81 132
e 81 149
e 81 159
e 81 173
e 81 178
e 81 219
e 81 229
e 81 237
e 82 86
e 82 91
e 82 93
e 82 95
e 82 96
e 82 99
e 82 114
e 82 117
e 82 129
e 82 152
e 82 166
e 82 180
e 82 185
e 82 193
e 82 207
e 82 239
e 82 240
e 83 99
e 83 117
e 83 134
e 83 141
e 83 155
e 83 159
e 83 164
e 83 165
e 83 180
e 83 184
e 83 189
e 83 215
e 83 224
e 83 234
e 84 88
e 84 90
e 84 93
e 84 95
e 84 97
e 84 99
e 84 108
e 84 117
e 84 122
e 84 125
e 84 140
e 84 146
e 84 164
e 84 175
e 84 193
e 84 208
e 85 86
e 85 87
e 85 101
e 85 105
e 85 106
e 85 114
e 85 115
e 85 126
e 85 148
e 85 152
e 85 157
e 85 177
e 85 192
e 85 195
e 85 201
e 85 213
e 85 231
e 85 232
e 85 249
e 86 89
e 86 104
e 86 116
e 86 124
e 86 132
e 86 134
e 86 136
e 86 138
e 86 148
e 86 154
e 86 162
e 86 184
e 86 210
e 86 229
e 86 242
e 87 97
e 87 98
e 87 114
e 87 121
e 87 155
e 87 171
e 87 180
e 87 185
e 87 186
e 87 190
e 87 191
e 87 195
e 87 201
e 87 224
e 87 225
e 87 232
e 87 233
e 87 235
e 87 254
e 88 91
e 88 115
e 88 147
e 88 184
e 88 202
e 88 217
e 88 247
e 88 253
e 89 93
e 89 98
e 89 103
e 89 110
e 89 111
e 89 114
e 89 130
e 89 133
e 89 141
e 89 147
e 89 185
e 89 188
e 89 241
e 89 251
e 89 253
e 90 96
e 90 110
e 90 111
e 90 112
e 90 118
e 90 123
e 90 125
e 90 131
e 90 135
e 90 141
e 90 144
e 90 145
e 90 159
e 90 174
e 90 177
e 90 182
e 90 198
e 90 201
e 90 206
e 90 207
e 90 209
e 90 213
e 90 214
e 90 236
e 90 246
e 90 249
e 91 105
e 91 140
e 91 255
e 92 93
e 92 99
e 92 103
e 92 104
e 92 105
e 92 109
e 92 119
e 92 126
e 92 128
e 92 132
e 92 163
e 92 169
e 92 170
e 92 180
e 92 182
e 92 200
e 92 206
e 92 233
e 92 238
e 92 245
e 92 246
e 93 121
e 93 131
e 93 148
e 93 157
e 93 185
e 93 209
e 93 212
e 93 216
e 93 217
e 93 233
e 93 235
e 94 97
e 94 102
e 94 104
e 94 106
e 94 109
e 94 113
e 94 119
e 94 122
e 94 126
e 94 136
e 94 144
e 94 178
e 94 221
e 94 222
e 94 243
e 94 247
e 95 97
e 95 98
e 95 100
e 95 135
e 95 149
e 95 163
e 95 171
e 95 195
e 95 207
e 95 249
e 95 255
e 96 100
e 96 115
e 96 130
e 96 155
e 96 186
e 96 187
e 96 199
e 96 228
e 96 230
e 96 234
e 97 109
e 97 117
e 97 136
e 97 139
e 97 152
e 97 166
e 97 174
e 97 183
e 97 198
e 97 200
e 97 209
e 97 215
e 97 220
e 97 231
e 98 135
e 98 138
e 98 147
e 98 163
e 98 185
e 98 192
e 98 201
e 98 203
e 98 239
e 99 105
e 99 128
e 99 143
e 99 146
e 99 147
e 99 171
e 99 230
e 99 242
e 100 110
e 100 128
e 100 134
e 100 142
e 100 156
e 100 166
e 100 167
e 100 170
e 100 173
e 100 176
e 100 181
e 100 186
e 100 194
e 100 209
e 100 211
e 100 215
e 100 241
e 100 244
e 100 247
e 100 253
e 101 104
e 101 107
e 101 117
e 101 124
e 101 156
e 101 161
e 101 186
e 101 219
e 101 223
e 101 250
e 102 105
e 102 107
e 102 127
e 102 139
e 102 155
e 102 162
e 102 167
e 102 235
e 102 249
e 102 254
e 103 128
e 103 196
e 103 221
e 104 113
e 104 181
e 104 198
e 104 207
e 104 217
e 104 226
e 104 231
e 104 235
e 104 238
e 104 250
e 105 106
e 105 109
e 105 146
e 105 148
e 105 160
e 105 185
e 105 211
e 105 218
e 105 227
e 105 246
e 105 250
e 106 126
e 106 130
e 106 174
e 106 176
e 106 196
e 106 205
e 106 238
e 106 244
e 107 118
e 107 121
e 107 136
e 107 137
e 107 141
e 107 196
e 108 115
e 108 148
e 108 153
e 108 164
e 108 167
e 108 192
e 108 209
e 108 213
e 108 218
e 108 251
e 108 253
e 109 113
e 109 118
e 109 120
e 109 133
e 109 137
e 109 155
e 109 157
e 109 172
e 109 184
e 109 225
e 109 230
e 109 252
e 110 131
e 110 133
e 110 149
e 110 150
e 110 153
e 110 158
e 110 161
e 110 162
e 110 179
e 110 188
e 110 202
e 110 203
e 110 226
e 110 229
e 110 239
e 110 245
e 110 248
e 111 129
e 111 138
e 111 144
e 111 183
e 111 208
e 111 226
e 111 254
e 112 128
e 112 149
e 112 173
e 112 188
e 112 189
e 112 194
e 112 214
e 112 217
e 113 156
e 113 163
e 113 170
e 113 193
e 113 197
e 113 214
e 113 241
e 114 127
e 114 135
e 114 145
e 114 163
e 114 167
e 114 182
e 114 189
e 114 193
e 114 195
e 114 211
e 114 232
e 115 139
e 115 145
e 115 207
e 116 128
e 116 154
e 116 174
e 116 223
e 117 147
e 117 160
e 117 174
e 117 192
e 117 210
e 117 217
e 117 231
e 117 241
e 118 122
e 118 174
e 118 199
e 118 213
e 118 234
e 118 254
e 119 124
e 119 140
e 119 147
e 119 151
e 119 166
e 119 182
e 119 188
e 119 234
e 120 122
e 120 128
e 120 136
e 120 143
e 120 147
e 120 150
e 120 156
e 120 162
e 120 184
e 120 207
e 120 211
e 120 231
e 120 236
e 120 246
e 120 248
e 121 123
e 121 124
e 121 132
e 121 153
e 121 170
e 121 175
e 121 180
e 121 190
e 121 196
e 121 200
e 121 249
e 122 135
e 122 147
e 122 151
e 122 169
e 122 181
e 122 198
e 122 233
e 122 244
e 123 124
e 123 127
e 123 131
e 123 134
e 123 149
e 123 172
e 123 176
e 123 188
e 123 189
e 123 220
e 123 225
e 123 252
e 124 127
e 124 135
e 124 164
e 124 211
e 124 224
e 124 226
e 124 231
e 124 238
e 124 243
e 125 126
e 125 132
e 125 158
e 125 161
e 125 168
e 125 186
e 125 189
e 125 196
e 125 197
e 125 235
e 126 130
e 126 134
e 126 174
e 126 179
e 126 192
e 126 194
e 126 197
e 126 206
e 126 222
e 126 251
e 127 149
e 127 156
e 127 159
e 127 176
e 127 187
e 127 200
e 127 226
e 128 134
e 128 153
e 128 159
e 128 163
e 128 174
e 128 177
e 128 178
e 128 221
e 128 239
e 128 240
e 129 174
e 129 205
e 129 237
e 129 245
e 130 147
e 130 154
e 130 158
e 130 197
e 130 198
e 130 217
e 130 235
e 131 133
e 131 136
e 131 143
e 131 170
e 131 224
e 132 148
e 132 197
e 132 212
e 132 220
e 132 248
e 133 170
e 133 181
e 133 210
e 133 216
e 133 222
e 133 232
e 133 244
e 134 165
e 134 185
e 134 213
e 134 215
e 135 147
e 135 151
e 135 160
e 135 184
e 135 188
e 135 194
e 135 197
e 135 222
e 136 138
e 136 149
e 136 176
e 136 181
e 136 198
e 136 200
e 136 210
e 137 140
e 137 145
e 137 199
e 137 206
e 137 233
e 138 146
e 138 152
e 138 193
e 138 198
e 138 241
e 138 249
e 139 159
e 139 166
e 139 211
e 139 213
e 139 228
e 139 253
e 140 168
e 140 172
e 140 191
e 140 192
e 140 202
e 140 204
e 140 221
e 140 244
e 141 149
e 141 160
e 141 166
e 141 186
e 141 193
e 141 196
e 141 199
e 141 201
e 141 211
e 141 214
e 141 228
e 141 239
e 141 242
e 141 253
e 142 144
e 142 199
e 142 213
e 142 222
e 142 236
e 142 244
e 143 144
e 143 151
e 143 155
e 143 170
e 143 189
e 143 190
e 143 193
e 143 207
e 143 213
e 144 162
e 144 166
e 144 168
e 144 187
e 144 202
e 144 203
e 144 215
e 144 232
e 145 167
e 145 172
e 145 211
e 146 155
e 146 185
e 146 215
e 146 225
e 146 239
e 146 253
e 147 160
e 147 167
e 147 184
e 147 192
e 147 210
e 147 225
e 147 244
e 147 252
e 148 157
e 148 162
e 148 204
e 148 206
e 148 230
e 148 241
e 148 242
e 149 153
e 149 192
e 150 161
e 150 190
e 150 239
e 150 247
e 151 160
e 151 161
e 151 204
e 151 207
e 151 218
e 152 176
e 152 177
e 152 238
e 153 169
e 153 193
e 153 203
e 153 212
e 153 216
e 153 222
e 153 228
e 154 156
e 154 161
e 154 170
e 154 183
e 154 190
e 154 193
e 154 221
e 154 228
e 154 236
e 155 159
e 155 168
e 155 170
e 155 182
e 155 236
e 155 240
e 156 182
e 157 160
e 157 234
e 158 170
e 158 202
e 159 203
e 159 234
e 160 163
e 160 164
e 160 165
e 160 230
e 160 248
e 161 192
e 161 206
e 161 213
e 161 220
e 162 168
e 163 189
e 164 188
e 164 210
e 164 216
e 164 229
e 164 234
e 165 193
e 165 223
e 165 231
e 166 167
e 166 178
e 166 203
e 166 224
e 166 227
e 166 231
e 167 168
e 167 172
e 167 179
e 167 186
e 167 195
e 167 219
e 167 228
e 167 253
e 168 169
e 168 171
e 168 173
e 168 190
e 168 236
e 168 243
e 169 174
e 169 196
e 170 232
e 170 245
e 170 253
e 171 183
e 171 235
e 172 187
e 172 190
e 172 194
e 172 199
e 172 213
e 172 216
e 173 200
e 173 233
e 173 243
e 174 182
e 174 189
e 174 212
e 175 203
e 175 204
e 175 216
e 175 245
e 175 251
e 176 194
e 176 196
e 176 212
e 176 232
e 176 237
e 176 248
e 176 252
e 178 243
e 179 216
e 179 220
e 179 244
e 180 198
e 180 200
e 180 205
e 180 224
e 180 240
e 180 242
e 180 244
e 180 247
e 181 193
e 181 206
e 181 225
e 182 202
e 182 219
e 182 223
e 183 219
e 183 222
e 183 229
e 184 192
e 184 232
e 185 213
e 185 225
e 186 194
e 186 195
e 186 214
e 186 249
e 187 194
e 187 197
e 187 203
e 187 239
e 187 255
e 188 196
e 188 198
e 188 202
e 189 191
e 189 222
e 189 224
e 189 235
e 189 247
e 190 203
e 190 224
e 190 230
e 190 247
e 191 214
e 192 199
e 192 216
e 192 223
e 192 225
e 192 233
e 192 234
e 193 204
e 194 205
e 194 209
e 194 247
e 195 214
e 195 217
e 195 218
e 195 235
e 195 239
e 196 213
e 196 223
e 196 228
e 196 252
e 197 238
e 197 241
e 198 215
e 198 233
e 198 237
e 199 208
e 199 238
e 199 242
e 200 241
e 201 206
e 201 212
e 202 218
e 202 250
e 202 252
e 203 241
e 203 245
e 204 238
e 205 216
e 206 226
e 206 250
e 207 230
e 208 216
e 209 230
e 210 221
e 210 235
e 210 242
e 212 221
e 212 247
e 213 214
e 213 223
e 213 251
e 215 231
e 215 241
e 215 243
e 216 240
e 216 246
e 217 218
e 217 240
e 217 252
e 218 220
e 219 227
e 219 236
e 220 254
e 221 223
e 222 239
e 222 240
e 223 240
e 223 255
e 226 246
e 226 255
e 227 241
e 229 232
e 231 234
e 232 254
e 233 244
e 233 246
e 233 254
e 234 238
e 236 237
e 239 251
e 239 252
e 243 249
e 244 245
e 248 250
